 ecut 18.0
 ionmov 0
 kptopt 1
 ngkpt 2 2 2
 nshiftk 1
 nstep 20
 pp_dirpath "./pseudo/"
 pseudos "Si.psp8"
 shiftk    0.0    0.0    0.0
 toldfe 1e-06
 indata_prefix "indata/in"
 tmpdata_prefix "tmpdata/tmp"
 outdata_prefix "outdata/out"
 natom 2
 ntypat 1
 typat 1 1
 znucl 14
 xred
    0.0000000000    0.0000000000    0.0000000000
    0.2500000000    0.2500000000    0.2500000000
 acell    1.0    1.0    1.0
 rprim
    5.1306064318    0.0000000000    5.1306064318
    5.1306064318    5.1306064318    0.0000000000
    0.0000000000    5.1306064318    5.1306064318